param n := 60;
param c := 10000
param : V : p w :=
   0	 504	 494
   1	 260	 250
   2	 266	 256
   3	 439	 429
   4	 276	 266
   5	 315	 305
   6	 388	 378
   7	 278	 268
   8	 364	 354
   9	 492	 482
  10	 261	 251
  11	 277	 267
  12	 474	 464
  13	 269	 259
  14	 287	 277
  15	 408	 398
  16	 286	 276
  17	 336	 326
  18	 400	 390
  19	 270	 260
  20	 360	 350
  21	 492	 482
  22	 261	 251
  23	 277	 267
  24	 440	 430
  25	 272	 262
  26	 318	 308
  27	 410	 400
  28	 271	 261
  29	 349	 339
  30	 508	 498
  31	 260	 250
  32	 262	 252
  33	 372	 362
  34	 298	 288
  35	 360	 350
  36	 508	 498
  37	 260	 250
  38	 262	 252
  39	 469	 459
  40	 270	 260
  41	 291	 281
  42	 411	 401
  43	 281	 271
  44	 338	 328
  45	 377	 367
  46	 298	 288
  47	 355	 345
  48	 362	 352
  49	 289	 279
  50	 379	 369
  51	 486	 476
  52	 271	 261
  53	 273	 263
  54	 489	 479
  55	 264	 254
  56	 277	 267
  57	 446	 436
  58	 290	 280
  59	 294	 284
;

set E :=
   0	   1
   0	   4
   0	   8
   0	  10
   0	  11
   0	  16
   0	  17
   0	  18
   0	  19
   0	  20
   0	  21
   0	  22
   0	  24
   0	  27
   0	  28
   0	  29
   0	  30
   0	  31
   0	  32
   0	  34
   0	  35
   0	  39
   0	  40
   0	  41
   0	  42
   0	  43
   0	  44
   0	  45
   0	  46
   0	  47
   0	  48
   0	  49
   0	  53
   0	  54
   0	  57
   0	  58
   0	  59
   1	   5
   1	   8
   1	  10
   1	  12
   1	  13
   1	  15
   1	  18
   1	  23
   1	  25
   1	  26
   1	  28
   1	  29
   1	  30
   1	  33
   1	  34
   1	  36
   1	  38
   1	  39
   1	  40
   1	  41
   1	  43
   1	  44
   1	  46
   1	  47
   1	  50
   1	  55
   1	  59
   2	   3
   2	   4
   2	   6
   2	   8
   2	  10
   2	  11
   2	  12
   2	  16
   2	  18
   2	  19
   2	  27
   2	  28
   2	  32
   2	  36
   2	  37
   2	  38
   2	  39
   2	  42
   2	  44
   2	  49
   2	  50
   2	  51
   2	  53
   2	  57
   3	   4
   3	   7
   3	   8
   3	  10
   3	  12
   3	  19
   3	  20
   3	  24
   3	  25
   3	  27
   3	  31
   3	  32
   3	  35
   3	  36
   3	  38
   3	  40
   3	  44
   3	  46
   3	  47
   3	  49
   3	  51
   3	  52
   3	  53
   3	  55
   3	  57
   4	   7
   4	   8
   4	   9
   4	  10
   4	  12
   4	  13
   4	  14
   4	  19
   4	  20
   4	  21
   4	  22
   4	  25
   4	  26
   4	  28
   4	  32
   4	  33
   4	  37
   4	  38
   4	  42
   4	  43
   4	  45
   4	  46
   4	  47
   4	  56
   4	  59
   5	   8
   5	  12
   5	  14
   5	  15
   5	  16
   5	  17
   5	  18
   5	  19
   5	  21
   5	  23
   5	  26
   5	  27
   5	  29
   5	  31
   5	  32
   5	  34
   5	  37
   5	  42
   5	  43
   5	  44
   5	  46
   5	  49
   5	  54
   5	  56
   6	   7
   6	  10
   6	  11
   6	  12
   6	  13
   6	  15
   6	  16
   6	  17
   6	  18
   6	  20
   6	  21
   6	  23
   6	  24
   6	  26
   6	  27
   6	  29
   6	  31
   6	  32
   6	  33
   6	  37
   6	  38
   6	  40
   6	  45
   6	  47
   6	  49
   6	  50
   6	  51
   6	  55
   6	  57
   6	  58
   7	   8
   7	   9
   7	  10
   7	  12
   7	  14
   7	  17
   7	  20
   7	  22
   7	  23
   7	  25
   7	  26
   7	  27
   7	  31
   7	  32
   7	  37
   7	  39
   7	  40
   7	  42
   7	  43
   7	  44
   7	  46
   7	  48
   7	  50
   7	  54
   7	  58
   7	  59
   8	  12
   8	  14
   8	  15
   8	  16
   8	  18
   8	  19
   8	  20
   8	  24
   8	  26
   8	  32
   8	  33
   8	  35
   8	  37
   8	  38
   8	  39
   8	  40
   8	  41
   8	  42
   8	  44
   8	  46
   8	  49
   8	  52
   8	  53
   8	  54
   8	  55
   8	  56
   8	  57
   9	  10
   9	  14
   9	  15
   9	  17
   9	  18
   9	  21
   9	  22
   9	  24
   9	  25
   9	  27
   9	  30
   9	  31
   9	  35
   9	  38
   9	  39
   9	  42
   9	  45
   9	  47
   9	  48
   9	  49
   9	  50
   9	  52
   9	  53
   9	  54
   9	  55
   9	  56
   9	  57
   9	  58
  10	  11
  10	  12
  10	  13
  10	  14
  10	  17
  10	  19
  10	  20
  10	  21
  10	  24
  10	  29
  10	  30
  10	  31
  10	  32
  10	  37
  10	  38
  10	  39
  10	  42
  10	  43
  10	  44
  10	  46
  10	  49
  10	  50
  10	  51
  10	  52
  10	  56
  10	  57
  10	  58
  10	  59
  11	  12
  11	  15
  11	  21
  11	  24
  11	  25
  11	  26
  11	  28
  11	  30
  11	  31
  11	  32
  11	  33
  11	  34
  11	  36
  11	  38
  11	  39
  11	  40
  11	  41
  11	  45
  11	  46
  11	  47
  11	  48
  11	  51
  11	  53
  11	  55
  11	  58
  12	  13
  12	  14
  12	  15
  12	  18
  12	  21
  12	  25
  12	  26
  12	  27
  12	  28
  12	  30
  12	  33
  12	  34
  12	  35
  12	  38
  12	  41
  12	  46
  12	  49
  12	  50
  12	  51
  12	  53
  12	  57
  12	  58
  13	  15
  13	  17
  13	  20
  13	  21
  13	  22
  13	  25
  13	  28
  13	  30
  13	  31
  13	  32
  13	  33
  13	  34
  13	  39
  13	  41
  13	  42
  13	  46
  13	  48
  13	  49
  13	  50
  13	  52
  13	  55
  13	  57
  13	  59
  14	  15
  14	  16
  14	  17
  14	  19
  14	  20
  14	  24
  14	  27
  14	  28
  14	  30
  14	  31
  14	  32
  14	  33
  14	  34
  14	  35
  14	  37
  14	  39
  14	  40
  14	  41
  14	  43
  14	  45
  14	  47
  14	  49
  14	  52
  14	  55
  14	  56
  14	  59
  15	  16
  15	  20
  15	  22
  15	  23
  15	  24
  15	  25
  15	  26
  15	  27
  15	  35
  15	  36
  15	  38
  15	  48
  15	  49
  15	  50
  15	  51
  15	  53
  15	  54
  15	  55
  15	  56
  16	  17
  16	  18
  16	  19
  16	  20
  16	  21
  16	  23
  16	  24
  16	  26
  16	  27
  16	  28
  16	  29
  16	  30
  16	  32
  16	  33
  16	  34
  16	  36
  16	  37
  16	  39
  16	  40
  16	  44
  16	  49
  16	  51
  16	  53
  16	  56
  16	  57
  16	  59
  17	  18
  17	  20
  17	  24
  17	  25
  17	  26
  17	  27
  17	  29
  17	  30
  17	  32
  17	  33
  17	  34
  17	  35
  17	  37
  17	  38
  17	  39
  17	  41
  17	  42
  17	  45
  17	  46
  17	  47
  17	  48
  17	  49
  17	  52
  17	  53
  17	  57
  17	  59
  18	  20
  18	  21
  18	  24
  18	  25
  18	  27
  18	  34
  18	  35
  18	  38
  18	  40
  18	  42
  18	  44
  18	  45
  18	  46
  18	  50
  18	  51
  18	  54
  18	  56
  18	  58
  18	  59
  19	  21
  19	  22
  19	  24
  19	  28
  19	  30
  19	  35
  19	  36
  19	  37
  19	  38
  19	  40
  19	  42
  19	  44
  19	  48
  19	  49
  19	  50
  19	  51
  19	  54
  19	  55
  19	  56
  19	  58
  20	  24
  20	  25
  20	  29
  20	  32
  20	  33
  20	  34
  20	  36
  20	  38
  20	  42
  20	  45
  20	  46
  20	  49
  20	  51
  20	  55
  20	  56
  20	  58
  20	  59
  21	  23
  21	  24
  21	  27
  21	  28
  21	  29
  21	  30
  21	  31
  21	  32
  21	  33
  21	  35
  21	  36
  21	  37
  21	  38
  21	  40
  21	  44
  21	  45
  21	  46
  21	  48
  21	  50
  21	  52
  21	  54
  21	  58
  22	  25
  22	  27
  22	  30
  22	  31
  22	  34
  22	  35
  22	  36
  22	  40
  22	  41
  22	  43
  22	  45
  22	  47
  22	  50
  22	  53
  22	  55
  22	  56
  22	  57
  22	  58
  23	  25
  23	  26
  23	  29
  23	  30
  23	  31
  23	  33
  23	  35
  23	  36
  23	  38
  23	  40
  23	  41
  23	  42
  23	  47
  23	  48
  23	  49
  23	  51
  23	  53
  23	  55
  23	  56
  23	  57
  24	  26
  24	  30
  24	  32
  24	  35
  24	  38
  24	  40
  24	  41
  24	  43
  24	  44
  24	  47
  24	  49
  24	  52
  24	  55
  24	  56
  24	  58
  24	  59
  25	  30
  25	  31
  25	  33
  25	  34
  25	  35
  25	  36
  25	  39
  25	  41
  25	  42
  25	  47
  25	  49
  25	  56
  25	  57
  26	  28
  26	  29
  26	  31
  26	  32
  26	  38
  26	  39
  26	  40
  26	  41
  26	  52
  26	  53
  26	  55
  26	  57
  26	  58
  27	  28
  27	  31
  27	  33
  27	  36
  27	  37
  27	  39
  27	  40
  27	  42
  27	  43
  27	  44
  27	  45
  27	  48
  27	  49
  27	  50
  27	  51
  27	  52
  27	  55
  27	  57
  27	  58
  28	  32
  28	  33
  28	  34
  28	  35
  28	  36
  28	  37
  28	  38
  28	  39
  28	  40
  28	  41
  28	  42
  28	  44
  28	  47
  28	  48
  28	  50
  28	  53
  28	  54
  28	  55
  28	  56
  28	  57
  28	  58
  29	  30
  29	  32
  29	  34
  29	  35
  29	  36
  29	  37
  29	  41
  29	  42
  29	  45
  29	  47
  29	  50
  29	  52
  29	  54
  29	  55
  29	  56
  29	  58
  30	  33
  30	  34
  30	  35
  30	  37
  30	  40
  30	  45
  30	  47
  30	  48
  30	  49
  30	  50
  30	  51
  30	  52
  30	  54
  30	  58
  30	  59
  31	  32
  31	  34
  31	  36
  31	  37
  31	  38
  31	  39
  31	  40
  31	  41
  31	  42
  31	  43
  31	  45
  31	  46
  31	  47
  31	  49
  31	  50
  31	  53
  31	  55
  31	  58
  31	  59
  32	  33
  32	  35
  32	  36
  32	  38
  32	  41
  32	  44
  32	  48
  32	  49
  32	  50
  32	  51
  32	  53
  32	  54
  32	  56
  32	  57
  32	  58
  33	  35
  33	  38
  33	  40
  33	  41
  33	  49
  33	  51
  33	  52
  33	  53
  33	  55
  33	  59
  34	  37
  34	  38
  34	  43
  34	  47
  34	  49
  34	  54
  34	  55
  34	  59
  35	  36
  35	  38
  35	  39
  35	  43
  35	  44
  35	  45
  35	  46
  35	  47
  35	  48
  35	  49
  35	  52
  35	  54
  35	  58
  35	  59
  36	  37
  36	  38
  36	  40
  36	  44
  36	  45
  36	  46
  36	  48
  36	  49
  36	  50
  37	  39
  37	  40
  37	  41
  37	  43
  37	  44
  37	  45
  37	  47
  37	  48
  37	  50
  37	  55
  37	  59
  38	  39
  38	  43
  38	  45
  38	  50
  38	  57
  38	  58
  39	  42
  39	  48
  39	  50
  39	  53
  39	  54
  39	  56
  39	  58
  40	  46
  40	  47
  40	  49
  40	  51
  40	  52
  40	  53
  40	  54
  40	  56
  40	  57
  40	  58
  40	  59
  41	  45
  41	  46
  41	  47
  41	  49
  41	  50
  41	  53
  41	  54
  41	  55
  41	  56
  41	  57
  41	  58
  42	  44
  42	  46
  42	  47
  42	  51
  42	  52
  42	  53
  42	  58
  43	  44
  43	  48
  43	  49
  43	  51
  43	  52
  43	  53
  43	  54
  43	  56
  43	  58
  44	  48
  44	  51
  44	  52
  44	  54
  44	  58
  45	  46
  45	  47
  45	  51
  45	  53
  45	  54
  45	  55
  45	  57
  45	  59
  46	  47
  46	  48
  46	  49
  46	  50
  46	  59
  47	  48
  47	  49
  47	  50
  47	  52
  47	  54
  47	  55
  47	  57
  47	  58
  48	  50
  48	  51
  48	  52
  48	  53
  48	  54
  48	  55
  48	  57
  48	  58
  49	  51
  49	  52
  49	  53
  49	  55
  49	  56
  49	  59
  50	  52
  50	  55
  50	  57
  50	  58
  50	  59
  51	  52
  51	  53
  51	  55
  51	  56
  51	  59
  52	  54
  52	  57
  52	  58
  53	  55
  53	  56
  53	  58
  53	  59
  54	  55
  54	  58
  55	  57
  55	  58
  55	  59
  56	  57
  56	  59
  57	  58
  58	  59
;
